n_res = 4;
rc = [ 22, 18, 15, 25 ];
n_tasks = 120;
d = [ 7, 1, 3, 3, 3, 7, 5, 7, 1, 2, 4, 1, 7, 2, 7, 1, 6, 9, 4, 10, 7, 1, 3, 8, 9, 1, 10, 7, 2, 4, 10, 10, 5, 1, 1, 3, 3, 3, 5, 1, 7, 2, 5, 9, 6, 4, 10, 8, 10, 7, 4, 5, 5, 2, 7, 3, 8, 7, 8, 8, 1, 2, 7, 8, 4, 9, 10, 4, 8, 8, 4, 10, 4, 10, 7, 10, 8, 6, 8, 9, 3, 5, 10, 7, 4, 7, 9, 9, 2, 9, 6, 3, 9, 10, 1, 5, 4, 7, 3, 6, 5, 1, 8, 9, 4, 7, 7, 10, 2, 10, 4, 3, 10, 3, 10, 2, 8, 6, 4, 5 ];
rr = [| 0, 10, 7, 1, 0, 1, 0, 0, 0, 7, 8, 10, 7, 9, 0, 0, 10, 9, 3, 10, 6, 0, 5, 9, 0, 2, 5, 7, 0, 0, 0, 0, 0, 5, 0, 7, 0, 0, 7, 0, 6, 0, 0, 0, 0, 0, 5, 0, 5, 3, 3, 0, 3, 5, 0, 10, 4, 3, 8, 10, 1, 0, 0, 0, 7, 0, 0, 0, 0, 0, 0, 2, 0, 0, 0, 0, 0, 0, 0, 7, 0, 7, 0, 1, 0, 6, 4, 0, 9, 0, 0, 0, 0, 1, 10, 3, 0, 0, 9, 4, 0, 0, 0, 0, 9, 8, 0, 8, 4, 0, 0, 6, 5, 6, 7, 10, 0, 5, 0, 0
      | 2, 2, 8, 0, 0, 0, 3, 1, 0, 0, 5, 7, 3, 9, 0, 0, 1, 0, 0, 1, 1, 3, 0, 0, 3, 10, 0, 6, 3, 5, 6, 5, 4, 0, 10, 10, 0, 3, 0, 0, 0, 7, 5, 4, 2, 0, 0, 1, 0, 3, 0, 0, 7, 0, 0, 0, 6, 0, 0, 1, 0, 4, 3, 10, 5, 10, 0, 7, 6, 0, 0, 4, 0, 10, 0, 0, 4, 4, 9, 10, 0, 9, 3, 9, 9, 10, 0, 2, 6, 7, 8, 9, 1, 2, 0, 0, 0, 10, 0, 0, 0, 0, 10, 0, 0, 3, 0, 5, 0, 3, 2, 6, 0, 0, 3, 0, 2, 0, 0, 5
      | 0, 0, 3, 0, 2, 7, 1, 1, 0, 2, 0, 2, 0, 0, 5, 0, 0, 10, 2, 0, 0, 0, 0, 10, 0, 0, 0, 0, 0, 0, 0, 0, 0, 10, 0, 0, 2, 2, 0, 10, 0, 0, 0, 2, 0, 5, 0, 0, 0, 0, 0, 0, 0, 0, 0, 3, 0, 0, 0, 0, 0, 9, 4, 9, 0, 1, 2, 0, 5, 3, 0, 0, 10, 0, 0, 0, 0, 4, 10, 0, 5, 0, 1, 1, 0, 0, 2, 0, 0, 5, 0, 0, 0, 0, 3, 8, 0, 8, 0, 0, 3, 7, 0, 6, 0, 0, 0, 6, 3, 0, 4, 6, 3, 6, 1, 0, 6, 4, 0, 10
      | 0, 10, 0, 0, 0, 6, 8, 0, 10, 9, 0, 7, 9, 0, 6, 5, 6, 0, 9, 0, 0, 3, 2, 0, 8, 6, 9, 0, 0, 6, 0, 0, 8, 4, 4, 0, 7, 0, 0, 9, 6, 8, 0, 8, 9, 7, 6, 7, 9, 0, 0, 3, 3, 0, 10, 3, 7, 9, 10, 3, 0, 0, 0, 0, 0, 4, 8, 10, 2, 8, 10, 0, 0, 2, 9, 1, 0, 0, 1, 7, 0, 1, 4, 10, 0, 0, 3, 0, 0, 0, 0, 0, 0, 0, 0, 0, 10, 2, 0, 4, 8, 0, 4, 0, 0, 8, 4, 0, 4, 1, 0, 1, 0, 3, 0, 6, 0, 0, 2, 0 |];
suc = [ { 6, 7, 9 },
       { 4, 10, 112 },
       { 5, 36, 46 },
       { 11, 15, 16 },
       { 12, 20, 32 },
       { 21, 59, 87 },
       { 8, 83 },
       { 13, 41, 50 },
       { 19, 25, 28 },
       { 56, 64 },
       { 29, 38 },
       { 14, 18, 26 },
       { 22, 31, 34 },
       { 17, 23, 27 },
       { 39 },
       { 24, 36, 63 },
       { 34, 44, 61 },
       { 33, 39, 43 },
       { 50 },
       { 65, 68, 80 },
       { 43, 56 },
       { 40, 86, 93 },
       { 37, 84, 119 },
       { 67, 76, 82 },
       { 30, 58, 62 },
       { 47, 51, 90 },
       { 89 },
       { 48, 50 },
       { 35, 54, 69 },
       { 34, 43, 45 },
       { 49, 53, 55 },
       { 37 },
       { 45, 58, 105 },
       { 51 },
       { 37, 45, 57 },
       { 49, 92, 114 },
       { 98, 103 },
       { 48, 57, 81 },
       { 74 },
       { 58, 67, 69 },
       { 42, 71, 77 },
       { 54, 60 },
       { 60, 73, 113 },
       { 51, 74, 76 },
       { 72, 75 },
       { 62, 86, 103 },
       { 75, 76 },
       { 74 },
       { 52, 65, 94 },
       { 62, 89, 101 },
       { 71 },
       { 95, 101 },
       { 60, 63, 65 },
       { 70, 91 },
       { 66, 73, 107 },
       { 66, 97 },
       { 64, 77, 83 },
       { 102 },
       { 72 },
       { 84, 103 },
       { 63, 92, 110 },
       { 70, 75, 90 },
       { 67, 87, 99 },
       { 66, 73, 85 },
       { 105 },
       { 88, 102, 114 },
       { 70, 79, 85 },
       { 71, 72, 86 },
       { 78, 79 },
       { 106, 111 },
       { 82, 85, 104 },
       { 77, 81 },
       { 93 },
       { 78, 82 },
       { 79, 81, 87 },
       { 78, 96 },
       { 96, 120 },
       { 94, 101 },
       { 94 },
       { 83, 97 },
       { 98, 107, 108 },
       { 89 },
       { 88, 91 },
       { 88, 112 },
       { 96 },
       { 95, 112, 115 },
       { 91, 97 },
       { 90, 92, 104 },
       { 95, 98, 115 },
       { 99, 105, 106 },
       { 93, 100, 108 },
       { 99 },
       { 102, 115 },
       { 109, 116, 117 },
       { 100 },
       { 100, 108 },
       { 113 },
       { 110 },
       { 109 },
       { 107 },
       { 113 },
       { 104 },
       { 109 },
       { 106 },
       { 110, 111 },
       { 117 },
       { 116 },
       { 114 },
       { 111 },
       { 117 },
       { 118 },
       { 118 },
       { 116 },
       { 118, 119 },
       { 120 },
       { 119 },
       { 120 },
       {  },
       {  },
       {  } ];
